[runlim] version:		2.0.0rc12
[runlim] host:			ap-Precision-7550
[runlim] time limit:		311040000 seconds
[runlim] real time limit:	600 seconds
[runlim] space limit:		14000 MB
[runlim] argv[0]:		python3
[runlim] argv[1]:		cp.py
[runlim] argv[2]:		scen03
[runlim] start:			Thu Mar 26 03:39:45 2026
[runlim] child:			31630
--- Building model for 400 variables ---
--- Solving with CP Optimizer (Integer Mode) ---
 ! --------------------------------------------------- CP Optimizer 22.1.1.0 --
 ! Minimization problem - 400 variables, 2760 constraints
 ! LogVerbosity         = Terse
 ! Initial process time : 0.01s (0.01s extraction + 0.00s propagation)
 !  . Log search space  : 2117.3 (before), 2117.3 (after)
 !  . Memory usage      : 1.5 MB (before), 1.5 MB (after)
 ! Using parallel search with 12 workers.
 ! ----------------------------------------------------------------------------
 !          Best Branches  Non-fixed    W       Branch decision
                        0        400                 -
 + New bound is 0
                        0        400                 -
 + New bound is 1
                        2        400    1   F   142 != node_577
 + New bound is 2
 *            34      214  0.13s        1      (gap is 94.12%)
 *            32      250  0.13s        3      (gap is 93.75%)
 *            30      711  0.13s        3      (gap is 93.33%)
 *            26     1087  0.21s        1      (gap is 92.31%)
 *            24     2109  0.28s        5      (gap is 91.67%)
 *            22     3718  0.31s        3      (gap is 90.91%)
 *            20     4221  0.37s        3      (gap is 90.00%)
 *            18     8192  0.54s        9      (gap is 88.89%)
 *            16    11571  0.71s        1      (gap is 87.50%)
 *            14    20395  2.04s        2      (gap is 85.71%)
              14    88502        348    7   F   764 != node_401
 + New bound is 3 (gap is 78.57%)
[runlim] sample:		75.31 time, 10.01 real, 177 MB, 7.63 load
[runlim] sample:		161.37 time, 20.01 real, 183 MB, 8.08 load
[runlim] sample:		240.27 time, 30.02 real, 186 MB, 7.80 load
[runlim] sample:		316.75 time, 40.02 real, 187 MB, 7.64 load
[runlim] sample:		397.90 time, 50.01 real, 188 MB, 7.35 load
[runlim] sample:		481.11 time, 60.01 real, 189 MB, 7.99 load
[runlim] sample:		565.39 time, 70.02 real, 190 MB, 8.01 load
[runlim] sample:		643.14 time, 80.01 real, 190 MB, 7.72 load
[runlim] sample:		725.35 time, 90.02 real, 190 MB, 8.31 load
[runlim] sample:		805.95 time, 100.01 real, 191 MB, 8.64 load
[runlim] sample:		884.27 time, 110.01 real, 191 MB, 8.34 load
[runlim] sample:		965.49 time, 120.01 real, 192 MB, 8.01 load
[runlim] sample:		1054.10 time, 130.01 real, 194 MB, 8.62 load
[runlim] sample:		1129.44 time, 140.01 real, 194 MB, 9.42 load
[runlim] sample:		1209.94 time, 150.02 real, 195 MB, 9.35 load
[runlim] sample:		1286.54 time, 160.01 real, 195 MB, 9.39 load
[runlim] sample:		1375.11 time, 170.01 real, 195 MB, 9.63 load
[runlim] sample:		1458.79 time, 180.01 real, 198 MB, 9.36 load
[runlim] sample:		1535.41 time, 190.01 real, 198 MB, 8.95 load
[runlim] sample:		1615.57 time, 200.01 real, 198 MB, 9.26 load
[runlim] sample:		1698.47 time, 210.01 real, 198 MB, 9.76 load
[runlim] sample:		1780.51 time, 220.02 real, 200 MB, 8.93 load
[runlim] sample:		1857.70 time, 230.01 real, 200 MB, 9.16 load
[runlim] sample:		1937.12 time, 240.01 real, 201 MB, 9.20 load
[runlim] sample:		2014.41 time, 250.02 real, 202 MB, 9.72 load
[runlim] sample:		2093.03 time, 260.01 real, 202 MB, 9.82 load
[runlim] sample:		2167.39 time, 270.01 real, 202 MB, 9.35 load
[runlim] sample:		2252.75 time, 280.01 real, 203 MB, 9.67 load
[runlim] sample:		2332.17 time, 290.01 real, 204 MB, 10.03 load
[runlim] sample:		2418.32 time, 300.01 real, 204 MB, 10.33 load
[runlim] sample:		2496.22 time, 310.01 real, 204 MB, 8.90 load
[runlim] sample:		2576.55 time, 320.01 real, 204 MB, 8.57 load
[runlim] sample:		2653.54 time, 330.01 real, 204 MB, 9.02 load
[runlim] sample:		2731.54 time, 340.01 real, 205 MB, 9.48 load
[runlim] sample:		2808.61 time, 350.01 real, 205 MB, 9.32 load
[runlim] sample:		2883.75 time, 360.02 real, 206 MB, 8.85 load
[runlim] sample:		2961.43 time, 370.01 real, 206 MB, 8.60 load
[runlim] sample:		3045.82 time, 380.01 real, 208 MB, 9.05 load
[runlim] sample:		3129.43 time, 390.01 real, 208 MB, 8.78 load
[runlim] sample:		3212.96 time, 400.01 real, 209 MB, 8.47 load
[runlim] sample:		3298.03 time, 410.01 real, 209 MB, 9.01 load
[runlim] sample:		3371.80 time, 420.01 real, 209 MB, 8.59 load
[runlim] sample:		3447.83 time, 430.01 real, 209 MB, 8.30 load
[runlim] sample:		3520.65 time, 440.01 real, 209 MB, 8.57 load
[runlim] sample:		3602.31 time, 450.02 real, 209 MB, 9.02 load
[runlim] sample:		3676.61 time, 460.01 real, 210 MB, 8.46 load
[runlim] sample:		3754.41 time, 470.01 real, 210 MB, 8.06 load
[runlim] sample:		3835.69 time, 480.01 real, 210 MB, 7.44 load
[runlim] sample:		3920.75 time, 490.01 real, 210 MB, 7.61 load
[runlim] sample:		3999.42 time, 500.02 real, 210 MB, 7.62 load
[runlim] sample:		4082.89 time, 510.01 real, 211 MB, 8.21 load
[runlim] sample:		4168.72 time, 520.01 real, 211 MB, 8.80 load
[runlim] sample:		4252.44 time, 530.01 real, 211 MB, 9.29 load
[runlim] sample:		4332.98 time, 540.01 real, 211 MB, 9.26 load
[runlim] sample:		4411.03 time, 550.01 real, 212 MB, 9.52 load
[runlim] sample:		4486.30 time, 560.02 real, 212 MB, 9.50 load
[runlim] sample:		4565.20 time, 570.02 real, 212 MB, 9.10 load
[runlim] sample:		4643.61 time, 580.01 real, 212 MB, 7.93 load
[runlim] sample:		4719.21 time, 590.01 real, 212 MB, 7.42 load
[runlim] sample:		4794.95 time, 600.01 real, 214 MB, 7.23 load
[runlim] end:			Thu Mar 26 03:49:46 2026
[runlim] status:		out of time
[runlim] result:		2
[runlim] children:		2
[runlim] processes:		3
[runlim] real:			601.07 seconds
[runlim] time:			4794.95 seconds
[runlim] space:			214 MB
[runlim] load:			10.33 maximum
[runlim] samples:		6000
